(set-logic QF_NRA)
(set-info :source |Benchmarks generated from hycomp (https://es-static.fbk.eu/tools/hycomp/). BMC instances of non-linear hybrid automata taken from: Alessandro Cimatti, Sergio Mover, Stefano Tonetta, A quantifier-free SMT encoding of non-linear hybrid automata, FMCAD 2012 and Alessandro Cimatti, Sergio Mover, Stefano Tonetta, Quantier-free encoding of invariants for Hybrid Systems, Formal Methods in System Design. This instance solves a BMC problem of depth 3 and uses the quantifier free encoding with equivalences encoding. Contacts: Sergio Mover (mover@fbk.eu), Stefano Tonetta (tonettas@fbk.eu), Alessandro Cimatti (cimatti@fbk.eu).|)
(set-info :smt-lib-version 2.0)
(set-info :category "industrial")
(set-info :status unsat)
;; MathSAT API call trace
;; generated on Mon Mar 19 10:45:46 2012
(declare-fun b.speed_x__AT1 () Real)
(declare-fun b.time__AT2 () Real)
(declare-fun b.time__AT1 () Real)
(declare-fun b.x__AT1 () Real)
(declare-fun b.event_is_timed__AT2 () Bool)
(declare-fun b.delta__AT2 () Real)
(declare-fun b.event_is_timed__AT1 () Bool)
(declare-fun b.counter.0__AT1 () Bool)
(declare-fun b.EVENT.1__AT0 () Bool)
(declare-fun b.EVENT.0__AT2 () Bool)
(declare-fun b.speed_loss__AT0 () Real)
(declare-fun b.y__AT3 () Real)
(declare-fun b.counter.1__AT1 () Bool)
(declare-fun b.speed_x__AT0 () Real)
(declare-fun b.x__AT3 () Real)
(declare-fun b.EVENT.0__AT3 () Bool)
(declare-fun b.counter.0__AT3 () Bool)
(declare-fun b.counter.2__AT1 () Bool)
(declare-fun b.time__AT0 () Real)
(declare-fun b.EVENT.1__AT3 () Bool)
(declare-fun b.counter.1__AT3 () Bool)
(declare-fun b.counter.2__AT0 () Bool)
(declare-fun b.counter.3__AT1 () Bool)
(declare-fun b.counter.2__AT3 () Bool)
(declare-fun b.bool_atom__AT1 () Bool)
(declare-fun b.counter.3__AT3 () Bool)
(declare-fun b.time__AT3 () Real)
(declare-fun b.x__AT0 () Real)
(declare-fun b.delta__AT3 () Real)
(declare-fun b.bool_atom__AT3 () Bool)
(declare-fun b.speed_x__AT3 () Real)
(declare-fun b.speed_y__AT1 () Real)
(declare-fun b.EVENT.1__AT2 () Bool)
(declare-fun b.delta__AT1 () Real)
(declare-fun b.bool_atom__AT0 () Bool)
(declare-fun b.y__AT0 () Real)
(declare-fun b.y__AT2 () Real)
(declare-fun b.EVENT.1__AT1 () Bool)
(declare-fun b.EVENT.0__AT1 () Bool)
(declare-fun b.counter.0__AT0 () Bool)
(declare-fun b.speed_y__AT3 () Real)
(declare-fun b.counter.0__AT2 () Bool)
(declare-fun b.x__AT2 () Real)
(declare-fun b.delta__AT0 () Real)
(declare-fun b.counter.1__AT0 () Bool)
(declare-fun b.counter.1__AT2 () Bool)
(declare-fun b.y__AT1 () Real)
(declare-fun b.EVENT.0__AT0 () Bool)
(declare-fun b.counter.2__AT2 () Bool)
(declare-fun b.counter.3__AT2 () Bool)
(declare-fun b.bool_atom__AT2 () Bool)
(declare-fun b.speed_x__AT2 () Real)
(declare-fun b.speed_y__AT0 () Real)
(declare-fun b.speed_y__AT2 () Real)
(declare-fun b.event_is_timed__AT0 () Bool)
(declare-fun b.event_is_timed__AT3 () Bool)
(declare-fun b.counter.3__AT0 () Bool)
(assert (let ((.def_838 (* (- 1.0) b.speed_x__AT3)))
(let ((.def_839 (* b.speed_x__AT3 .def_838)))
(let ((.def_840 (* (- 1.0) .def_839)))
(let ((.def_871 (* 2.0 .def_840)))
(let ((.def_872 (* b.delta__AT3 .def_871)))
(let ((.def_873 (* 5.0 .def_872)))
(let ((.def_779 (* (- 1.0) b.x__AT3)))
(let ((.def_851 (* b.speed_x__AT3 .def_779)))
(let ((.def_876 (* (- 5.0) .def_851)))
(let ((.def_882 (+ .def_876 .def_873)))
(let ((.def_846 (* b.x__AT3 .def_838)))
(let ((.def_874 (* (- 5.0) .def_846)))
(let ((.def_883 (+ .def_874 .def_882)))
(let ((.def_878 (* (- 49.0) b.delta__AT3)))
(let ((.def_884 (+ .def_878 .def_883)))
(let ((.def_880 (* 5.0 b.speed_y__AT3)))
(let ((.def_885 (+ .def_880 .def_884)))
(let ((.def_889 (<= .def_885 0.0 )))
(let ((.def_852 (* (- 1.0) .def_851)))
(let ((.def_847 (* (- 1.0) .def_846)))
(let ((.def_868 (+ .def_847 .def_852)))
(let ((.def_869 (+ b.speed_y__AT3 .def_868)))
(let ((.def_888 (<= .def_869 0.0 )))
(let ((.def_890 (and .def_888 .def_889)))
(let ((.def_886 (<= 0.0 .def_885)))
(let ((.def_870 (<= 0.0 .def_869)))
(let ((.def_887 (and .def_870 .def_886)))
(let ((.def_891 (or .def_887 .def_890)))
(let ((.def_853 (* b.delta__AT3 .def_852)))
(let ((.def_854 (* 10.0 .def_853)))
(let ((.def_848 (* b.delta__AT3 .def_847)))
(let ((.def_849 (* 10.0 .def_848)))
(let ((.def_860 (+ .def_849 .def_854)))
(let ((.def_837 (* b.delta__AT3 b.delta__AT3)))
(let ((.def_841 (* .def_837 .def_840)))
(let ((.def_842 (* 10.0 .def_841)))
(let ((.def_861 (+ .def_842 .def_860)))
(let ((.def_844 (* (- 49.0) .def_837)))
(let ((.def_862 (+ .def_844 .def_861)))
(let ((.def_835 (* b.speed_y__AT3 b.delta__AT3)))
(let ((.def_836 (* 10.0 .def_835)))
(let ((.def_863 (+ .def_836 .def_862)))
(let ((.def_825 (* b.x__AT3 .def_779)))
(let ((.def_856 (* (- 10.0) .def_825)))
(let ((.def_864 (+ .def_856 .def_863)))
(let ((.def_858 (* 10.0 b.y__AT3)))
(let ((.def_865 (+ .def_858 .def_864)))
(let ((.def_866 (<= 0.0 .def_865)))
(let ((.def_826 (<= .def_825 b.y__AT3)))
(let ((.def_867 (and .def_826 .def_866)))
(let ((.def_892 (and .def_867 .def_891)))
(let ((.def_65 (<= b.speed_loss__AT0 (/ 1 2))))
(let ((.def_62 (<= (/ 1 10) b.speed_loss__AT0)))
(let ((.def_66 (and .def_62 .def_65)))
(let ((.def_893 (and .def_66 .def_892)))
(let ((.def_489 (not b.counter.0__AT2)))
(let ((.def_479 (not b.counter.1__AT2)))
(let ((.def_830 (and .def_479 .def_489)))
(let ((.def_484 (not b.counter.2__AT2)))
(let ((.def_831 (and .def_484 .def_830)))
(let ((.def_827 (and .def_66 .def_826)))
(let ((.def_822 (not b.EVENT.0__AT3)))
(let ((.def_820 (not b.EVENT.1__AT3)))
(let ((.def_823 (or .def_820 .def_822)))
(let ((.def_6 (not b.counter.0__AT3)))
(let ((.def_4 (not b.counter.1__AT3)))
(let ((.def_813 (or .def_4 .def_6)))
(let ((.def_817 (or b.counter.3__AT3 .def_813)))
(let ((.def_814 (or b.counter.2__AT3 .def_813)))
(let ((.def_9 (not b.counter.2__AT3)))
(let ((.def_812 (or .def_6 .def_9)))
(let ((.def_815 (and .def_812 .def_814)))
(let ((.def_744 (not b.counter.3__AT3)))
(let ((.def_816 (or .def_744 .def_815)))
(let ((.def_818 (and .def_816 .def_817)))
(let ((.def_824 (and .def_818 .def_823)))
(let ((.def_828 (and .def_824 .def_827)))
(let ((.def_807 (<= 0.0 b.delta__AT2)))
(let ((.def_576 (not b.EVENT.0__AT2)))
(let ((.def_574 (not b.EVENT.1__AT2)))
(let ((.def_649 (and .def_574 .def_576)))
(let ((.def_651 (not .def_649)))
(let ((.def_808 (or .def_651 .def_807)))
(let ((.def_809 (or b.EVENT.1__AT2 .def_808)))
(let ((.def_690 (= b.bool_atom__AT2 b.bool_atom__AT3)))
(let ((.def_686 (= b.counter.0__AT3 b.counter.0__AT2)))
(let ((.def_684 (= b.counter.1__AT3 b.counter.1__AT2)))
(let ((.def_682 (= b.counter.2__AT3 b.counter.2__AT2)))
(let ((.def_681 (= b.counter.3__AT2 b.counter.3__AT3)))
(let ((.def_683 (and .def_681 .def_682)))
(let ((.def_685 (and .def_683 .def_684)))
(let ((.def_687 (and .def_685 .def_686)))
(let ((.def_803 (and .def_687 .def_690)))
(let ((.def_804 (or .def_651 .def_803)))
(let ((.def_805 (or b.EVENT.1__AT2 .def_804)))
(let ((.def_791 (* (- 10.0) b.y__AT3)))
(let ((.def_591 (* b.delta__AT2 b.delta__AT2)))
(let ((.def_598 (* (- 49.0) .def_591)))
(let ((.def_795 (+ .def_598 .def_791)))
(let ((.def_589 (* b.speed_y__AT2 b.delta__AT2)))
(let ((.def_590 (* 10.0 .def_589)))
(let ((.def_796 (+ .def_590 .def_795)))
(let ((.def_612 (* 10.0 b.y__AT2)))
(let ((.def_797 (+ .def_612 .def_796)))
(let ((.def_798 (= .def_797 0.0 )))
(let ((.def_786 (* (- 5.0) b.speed_y__AT3)))
(let ((.def_632 (* (- 49.0) b.delta__AT2)))
(let ((.def_787 (+ .def_632 .def_786)))
(let ((.def_634 (* 5.0 b.speed_y__AT2)))
(let ((.def_788 (+ .def_634 .def_787)))
(let ((.def_789 (= .def_788 0.0 )))
(let ((.def_778 (* b.speed_x__AT2 b.delta__AT2)))
(let ((.def_782 (+ .def_779 .def_778)))
(let ((.def_783 (+ b.x__AT2 .def_782)))
(let ((.def_784 (= .def_783 0.0 )))
(let ((.def_675 (= b.speed_x__AT2 b.speed_x__AT3)))
(let ((.def_785 (and .def_675 .def_784)))
(let ((.def_790 (and .def_785 .def_789)))
(let ((.def_799 (and .def_790 .def_798)))
(let ((.def_800 (or .def_651 .def_799)))
(let ((.def_672 (= b.y__AT2 b.y__AT3)))
(let ((.def_669 (= b.x__AT2 b.x__AT3)))
(let ((.def_772 (and .def_669 .def_672)))
(let ((.def_773 (and .def_675 .def_772)))
(let ((.def_678 (= b.speed_y__AT2 b.speed_y__AT3)))
(let ((.def_774 (and .def_678 .def_773)))
(let ((.def_769 (= b.delta__AT2 0.0 )))
(let ((.def_770 (and .def_649 .def_769)))
(let ((.def_771 (not .def_770)))
(let ((.def_775 (or .def_771 .def_774)))
(let ((.def_776 (or b.EVENT.1__AT2 .def_775)))
(let ((.def_761 (and .def_675 .def_678)))
(let ((.def_762 (and .def_687 .def_761)))
(let ((.def_763 (or b.bool_atom__AT2 .def_762)))
(let ((.def_736 (or .def_6 b.counter.0__AT2)))
(let ((.def_735 (or b.counter.0__AT3 .def_489)))
(let ((.def_737 (and .def_735 .def_736)))
(let ((.def_738 (and .def_4 .def_737)))
(let ((.def_739 (or b.counter.1__AT2 .def_738)))
(let ((.def_734 (or b.counter.1__AT3 .def_479)))
(let ((.def_740 (and .def_734 .def_739)))
(let ((.def_752 (and .def_9 .def_740)))
(let ((.def_753 (or b.counter.2__AT2 .def_752)))
(let ((.def_747 (and .def_4 .def_489)))
(let ((.def_748 (or b.counter.1__AT2 .def_747)))
(let ((.def_749 (and .def_734 .def_748)))
(let ((.def_750 (and b.counter.2__AT3 .def_749)))
(let ((.def_751 (or .def_484 .def_750)))
(let ((.def_754 (and .def_751 .def_753)))
(let ((.def_755 (and b.counter.3__AT3 .def_754)))
(let ((.def_756 (or b.counter.3__AT2 .def_755)))
(let ((.def_741 (and b.counter.2__AT3 .def_740)))
(let ((.def_742 (or b.counter.2__AT2 .def_741)))
(let ((.def_730 (or b.counter.1__AT3 b.counter.1__AT2)))
(let ((.def_728 (and .def_4 b.counter.0__AT3)))
(let ((.def_729 (or .def_479 .def_728)))
(let ((.def_731 (and .def_729 .def_730)))
(let ((.def_732 (and .def_9 .def_731)))
(let ((.def_733 (or .def_484 .def_732)))
(let ((.def_743 (and .def_733 .def_742)))
(let ((.def_745 (and .def_743 .def_744)))
(let ((.def_498 (not b.counter.3__AT2)))
(let ((.def_746 (or .def_498 .def_745)))
(let ((.def_757 (and .def_746 .def_756)))
(let ((.def_468 (* b.speed_y__AT2 b.speed_y__AT2)))
(let ((.def_466 (* b.speed_x__AT2 b.speed_x__AT2)))
(let ((.def_720 (+ .def_466 .def_468)))
(let ((.def_201 (* (- 1.0) b.speed_loss__AT0)))
(let ((.def_202 (+ 1.0 .def_201)))
(let ((.def_218 (* .def_202 .def_202)))
(let ((.def_721 (* .def_218 .def_720)))
(let ((.def_723 (* (- 1.0) .def_721)))
(let ((.def_717 (* b.speed_y__AT3 b.speed_y__AT3)))
(let ((.def_724 (+ .def_717 .def_723)))
(let ((.def_715 (* b.speed_x__AT3 b.speed_x__AT3)))
(let ((.def_725 (+ .def_715 .def_724)))
(let ((.def_726 (= .def_725 0.0 )))
(let ((.def_708 (* .def_202 b.speed_y__AT2)))
(let ((.def_453 (* (- 2.0) b.x__AT2)))
(let ((.def_454 (* (- 1.0) .def_453)))
(let ((.def_705 (* .def_202 .def_454)))
(let ((.def_706 (* b.speed_x__AT2 .def_705)))
(let ((.def_711 (+ .def_706 .def_708)))
(let ((.def_702 (* (- 2.0) b.x__AT3)))
(let ((.def_703 (* (- 1.0) .def_702)))
(let ((.def_704 (* b.speed_x__AT3 .def_703)))
(let ((.def_712 (+ .def_704 .def_711)))
(let ((.def_713 (+ b.speed_y__AT3 .def_712)))
(let ((.def_714 (= .def_713 0.0 )))
(let ((.def_727 (and .def_714 .def_726)))
(let ((.def_758 (and .def_727 .def_757)))
(let ((.def_701 (not b.bool_atom__AT2)))
(let ((.def_759 (or .def_701 .def_758)))
(let ((.def_455 (* b.speed_x__AT2 .def_454)))
(let ((.def_696 (+ b.speed_y__AT2 .def_455)))
(let ((.def_697 (<= 0.0 .def_696)))
(let ((.def_698 (not .def_697)))
(let ((.def_533 (* (- 1.0) b.x__AT2)))
(let ((.def_579 (* b.x__AT2 .def_533)))
(let ((.def_695 (= b.y__AT2 .def_579)))
(let ((.def_699 (and .def_695 .def_698)))
(let ((.def_700 (= b.bool_atom__AT2 .def_699)))
(let ((.def_760 (and .def_700 .def_759)))
(let ((.def_764 (and .def_760 .def_763)))
(let ((.def_765 (and .def_669 .def_764)))
(let ((.def_766 (and .def_672 .def_765)))
(let ((.def_767 (or .def_649 .def_766)))
(let ((.def_768 (or b.EVENT.1__AT2 .def_767)))
(let ((.def_777 (and .def_768 .def_776)))
(let ((.def_801 (and .def_777 .def_800)))
(let ((.def_656 (= b.time__AT2 b.time__AT3)))
(let ((.def_670 (and .def_656 .def_669)))
(let ((.def_673 (and .def_670 .def_672)))
(let ((.def_676 (and .def_673 .def_675)))
(let ((.def_679 (and .def_676 .def_678)))
(let ((.def_688 (and .def_679 .def_687)))
(let ((.def_691 (and .def_688 .def_690)))
(let ((.def_692 (or .def_574 .def_691)))
(let ((.def_659 (* (- 1.0) b.time__AT3)))
(let ((.def_662 (+ b.delta__AT2 .def_659)))
(let ((.def_663 (+ b.time__AT2 .def_662)))
(let ((.def_664 (= .def_663 0.0 )))
(let ((.def_665 (or .def_651 .def_664)))
(let ((.def_666 (or b.EVENT.1__AT2 .def_665)))
(let ((.def_657 (or .def_649 .def_656)))
(let ((.def_658 (or b.EVENT.1__AT2 .def_657)))
(let ((.def_667 (and .def_658 .def_666)))
(let ((.def_693 (and .def_667 .def_692)))
(let ((.def_653 (= .def_651 b.event_is_timed__AT3)))
(let ((.def_650 (= b.event_is_timed__AT2 .def_649)))
(let ((.def_654 (and .def_650 .def_653)))
(let ((.def_694 (and .def_654 .def_693)))
(let ((.def_802 (and .def_694 .def_801)))
(let ((.def_806 (and .def_802 .def_805)))
(let ((.def_810 (and .def_806 .def_809)))
(let ((.def_811 (and .def_574 .def_810)))
(let ((.def_829 (and .def_811 .def_828)))
(let ((.def_832 (and .def_829 .def_831)))
(let ((.def_592 (* (- 1.0) b.speed_x__AT2)))
(let ((.def_593 (* b.speed_x__AT2 .def_592)))
(let ((.def_594 (* (- 1.0) .def_593)))
(let ((.def_625 (* 2.0 .def_594)))
(let ((.def_626 (* b.delta__AT2 .def_625)))
(let ((.def_627 (* 5.0 .def_626)))
(let ((.def_605 (* b.speed_x__AT2 .def_533)))
(let ((.def_630 (* (- 5.0) .def_605)))
(let ((.def_636 (+ .def_630 .def_627)))
(let ((.def_600 (* b.x__AT2 .def_592)))
(let ((.def_628 (* (- 5.0) .def_600)))
(let ((.def_637 (+ .def_628 .def_636)))
(let ((.def_638 (+ .def_632 .def_637)))
(let ((.def_639 (+ .def_634 .def_638)))
(let ((.def_643 (<= .def_639 0.0 )))
(let ((.def_606 (* (- 1.0) .def_605)))
(let ((.def_601 (* (- 1.0) .def_600)))
(let ((.def_622 (+ .def_601 .def_606)))
(let ((.def_623 (+ b.speed_y__AT2 .def_622)))
(let ((.def_642 (<= .def_623 0.0 )))
(let ((.def_644 (and .def_642 .def_643)))
(let ((.def_640 (<= 0.0 .def_639)))
(let ((.def_624 (<= 0.0 .def_623)))
(let ((.def_641 (and .def_624 .def_640)))
(let ((.def_645 (or .def_641 .def_644)))
(let ((.def_607 (* b.delta__AT2 .def_606)))
(let ((.def_608 (* 10.0 .def_607)))
(let ((.def_602 (* b.delta__AT2 .def_601)))
(let ((.def_603 (* 10.0 .def_602)))
(let ((.def_614 (+ .def_603 .def_608)))
(let ((.def_595 (* .def_591 .def_594)))
(let ((.def_596 (* 10.0 .def_595)))
(let ((.def_615 (+ .def_596 .def_614)))
(let ((.def_616 (+ .def_598 .def_615)))
(let ((.def_617 (+ .def_590 .def_616)))
(let ((.def_610 (* (- 10.0) .def_579)))
(let ((.def_618 (+ .def_610 .def_617)))
(let ((.def_619 (+ .def_612 .def_618)))
(let ((.def_620 (<= 0.0 .def_619)))
(let ((.def_580 (<= .def_579 b.y__AT2)))
(let ((.def_621 (and .def_580 .def_620)))
(let ((.def_646 (and .def_621 .def_645)))
(let ((.def_647 (and .def_66 .def_646)))
(let ((.def_239 (not b.counter.0__AT1)))
(let ((.def_229 (not b.counter.1__AT1)))
(let ((.def_584 (and .def_229 .def_239)))
(let ((.def_234 (not b.counter.2__AT1)))
(let ((.def_585 (and .def_234 .def_584)))
(let ((.def_581 (and .def_66 .def_580)))
(let ((.def_577 (or .def_574 .def_576)))
(let ((.def_567 (or .def_479 .def_489)))
(let ((.def_571 (or b.counter.3__AT2 .def_567)))
(let ((.def_568 (or b.counter.2__AT2 .def_567)))
(let ((.def_566 (or .def_484 .def_489)))
(let ((.def_569 (and .def_566 .def_568)))
(let ((.def_570 (or .def_498 .def_569)))
(let ((.def_572 (and .def_570 .def_571)))
(let ((.def_578 (and .def_572 .def_577)))
(let ((.def_582 (and .def_578 .def_581)))
(let ((.def_561 (<= 0.0 b.delta__AT1)))
(let ((.def_326 (not b.EVENT.0__AT1)))
(let ((.def_324 (not b.EVENT.1__AT1)))
(let ((.def_397 (and .def_324 .def_326)))
(let ((.def_399 (not .def_397)))
(let ((.def_562 (or .def_399 .def_561)))
(let ((.def_563 (or b.EVENT.1__AT1 .def_562)))
(let ((.def_441 (= b.bool_atom__AT1 b.bool_atom__AT2)))
(let ((.def_437 (= b.counter.0__AT1 b.counter.0__AT2)))
(let ((.def_434 (= b.counter.1__AT1 b.counter.1__AT2)))
(let ((.def_431 (= b.counter.2__AT1 b.counter.2__AT2)))
(let ((.def_429 (= b.counter.3__AT1 b.counter.3__AT2)))
(let ((.def_432 (and .def_429 .def_431)))
(let ((.def_435 (and .def_432 .def_434)))
(let ((.def_438 (and .def_435 .def_437)))
(let ((.def_557 (and .def_438 .def_441)))
(let ((.def_558 (or .def_399 .def_557)))
(let ((.def_559 (or b.EVENT.1__AT1 .def_558)))
(let ((.def_545 (* (- 10.0) b.y__AT2)))
(let ((.def_339 (* b.delta__AT1 b.delta__AT1)))
(let ((.def_346 (* (- 49.0) .def_339)))
(let ((.def_549 (+ .def_346 .def_545)))
(let ((.def_337 (* b.speed_y__AT1 b.delta__AT1)))
(let ((.def_338 (* 10.0 .def_337)))
(let ((.def_550 (+ .def_338 .def_549)))
(let ((.def_360 (* 10.0 b.y__AT1)))
(let ((.def_551 (+ .def_360 .def_550)))
(let ((.def_552 (= .def_551 0.0 )))
(let ((.def_540 (* (- 5.0) b.speed_y__AT2)))
(let ((.def_380 (* (- 49.0) b.delta__AT1)))
(let ((.def_541 (+ .def_380 .def_540)))
(let ((.def_382 (* 5.0 b.speed_y__AT1)))
(let ((.def_542 (+ .def_382 .def_541)))
(let ((.def_543 (= .def_542 0.0 )))
(let ((.def_532 (* b.speed_x__AT1 b.delta__AT1)))
(let ((.def_536 (+ .def_533 .def_532)))
(let ((.def_537 (+ b.x__AT1 .def_536)))
(let ((.def_538 (= .def_537 0.0 )))
(let ((.def_423 (= b.speed_x__AT1 b.speed_x__AT2)))
(let ((.def_539 (and .def_423 .def_538)))
(let ((.def_544 (and .def_539 .def_543)))
(let ((.def_553 (and .def_544 .def_552)))
(let ((.def_554 (or .def_399 .def_553)))
(let ((.def_420 (= b.y__AT1 b.y__AT2)))
(let ((.def_417 (= b.x__AT1 b.x__AT2)))
(let ((.def_526 (and .def_417 .def_420)))
(let ((.def_527 (and .def_423 .def_526)))
(let ((.def_426 (= b.speed_y__AT1 b.speed_y__AT2)))
(let ((.def_528 (and .def_426 .def_527)))
(let ((.def_523 (= b.delta__AT1 0.0 )))
(let ((.def_524 (and .def_397 .def_523)))
(let ((.def_525 (not .def_524)))
(let ((.def_529 (or .def_525 .def_528)))
(let ((.def_530 (or b.EVENT.1__AT1 .def_529)))
(let ((.def_515 (and .def_423 .def_426)))
(let ((.def_516 (and .def_438 .def_515)))
(let ((.def_517 (or b.bool_atom__AT1 .def_516)))
(let ((.def_490 (or b.counter.0__AT1 .def_489)))
(let ((.def_488 (or .def_239 b.counter.0__AT2)))
(let ((.def_491 (and .def_488 .def_490)))
(let ((.def_492 (and .def_479 .def_491)))
(let ((.def_493 (or b.counter.1__AT1 .def_492)))
(let ((.def_487 (or .def_229 b.counter.1__AT2)))
(let ((.def_494 (and .def_487 .def_493)))
(let ((.def_506 (and .def_484 .def_494)))
(let ((.def_507 (or b.counter.2__AT1 .def_506)))
(let ((.def_501 (and .def_239 .def_479)))
(let ((.def_502 (or b.counter.1__AT1 .def_501)))
(let ((.def_503 (and .def_487 .def_502)))
(let ((.def_504 (and b.counter.2__AT2 .def_503)))
(let ((.def_505 (or .def_234 .def_504)))
(let ((.def_508 (and .def_505 .def_507)))
(let ((.def_509 (and b.counter.3__AT2 .def_508)))
(let ((.def_510 (or b.counter.3__AT1 .def_509)))
(let ((.def_495 (and b.counter.2__AT2 .def_494)))
(let ((.def_496 (or b.counter.2__AT1 .def_495)))
(let ((.def_482 (or b.counter.1__AT1 b.counter.1__AT2)))
(let ((.def_480 (and b.counter.0__AT2 .def_479)))
(let ((.def_481 (or .def_229 .def_480)))
(let ((.def_483 (and .def_481 .def_482)))
(let ((.def_485 (and .def_483 .def_484)))
(let ((.def_486 (or .def_234 .def_485)))
(let ((.def_497 (and .def_486 .def_496)))
(let ((.def_499 (and .def_497 .def_498)))
(let ((.def_248 (not b.counter.3__AT1)))
(let ((.def_500 (or .def_248 .def_499)))
(let ((.def_511 (and .def_500 .def_510)))
(let ((.def_215 (* b.speed_y__AT1 b.speed_y__AT1)))
(let ((.def_213 (* b.speed_x__AT1 b.speed_x__AT1)))
(let ((.def_471 (+ .def_213 .def_215)))
(let ((.def_472 (* .def_218 .def_471)))
(let ((.def_474 (* (- 1.0) .def_472)))
(let ((.def_475 (+ .def_468 .def_474)))
(let ((.def_476 (+ .def_466 .def_475)))
(let ((.def_477 (= .def_476 0.0 )))
(let ((.def_459 (* b.speed_y__AT1 .def_202)))
(let ((.def_198 (* (- 2.0) b.x__AT1)))
(let ((.def_199 (* (- 1.0) .def_198)))
(let ((.def_456 (* .def_199 .def_202)))
(let ((.def_457 (* b.speed_x__AT1 .def_456)))
(let ((.def_462 (+ .def_457 .def_459)))
(let ((.def_463 (+ .def_455 .def_462)))
(let ((.def_464 (+ b.speed_y__AT2 .def_463)))
(let ((.def_465 (= .def_464 0.0 )))
(let ((.def_478 (and .def_465 .def_477)))
(let ((.def_512 (and .def_478 .def_511)))
(let ((.def_452 (not b.bool_atom__AT1)))
(let ((.def_513 (or .def_452 .def_512)))
(let ((.def_200 (* b.speed_x__AT1 .def_199)))
(let ((.def_447 (+ b.speed_y__AT1 .def_200)))
(let ((.def_448 (<= 0.0 .def_447)))
(let ((.def_449 (not .def_448)))
(let ((.def_283 (* (- 1.0) b.x__AT1)))
(let ((.def_329 (* b.x__AT1 .def_283)))
(let ((.def_446 (= b.y__AT1 .def_329)))
(let ((.def_450 (and .def_446 .def_449)))
(let ((.def_451 (= b.bool_atom__AT1 .def_450)))
(let ((.def_514 (and .def_451 .def_513)))
(let ((.def_518 (and .def_514 .def_517)))
(let ((.def_519 (and .def_417 .def_518)))
(let ((.def_520 (and .def_420 .def_519)))
(let ((.def_521 (or .def_397 .def_520)))
(let ((.def_522 (or b.EVENT.1__AT1 .def_521)))
(let ((.def_531 (and .def_522 .def_530)))
(let ((.def_555 (and .def_531 .def_554)))
(let ((.def_404 (= b.time__AT1 b.time__AT2)))
(let ((.def_418 (and .def_404 .def_417)))
(let ((.def_421 (and .def_418 .def_420)))
(let ((.def_424 (and .def_421 .def_423)))
(let ((.def_427 (and .def_424 .def_426)))
(let ((.def_439 (and .def_427 .def_438)))
(let ((.def_442 (and .def_439 .def_441)))
(let ((.def_443 (or .def_324 .def_442)))
(let ((.def_407 (* (- 1.0) b.time__AT2)))
(let ((.def_410 (+ b.delta__AT1 .def_407)))
(let ((.def_411 (+ b.time__AT1 .def_410)))
(let ((.def_412 (= .def_411 0.0 )))
(let ((.def_413 (or .def_399 .def_412)))
(let ((.def_414 (or b.EVENT.1__AT1 .def_413)))
(let ((.def_405 (or .def_397 .def_404)))
(let ((.def_406 (or b.EVENT.1__AT1 .def_405)))
(let ((.def_415 (and .def_406 .def_414)))
(let ((.def_444 (and .def_415 .def_443)))
(let ((.def_401 (= .def_399 b.event_is_timed__AT2)))
(let ((.def_398 (= b.event_is_timed__AT1 .def_397)))
(let ((.def_402 (and .def_398 .def_401)))
(let ((.def_445 (and .def_402 .def_444)))
(let ((.def_556 (and .def_445 .def_555)))
(let ((.def_560 (and .def_556 .def_559)))
(let ((.def_564 (and .def_560 .def_563)))
(let ((.def_565 (and .def_324 .def_564)))
(let ((.def_583 (and .def_565 .def_582)))
(let ((.def_586 (and .def_583 .def_585)))
(let ((.def_340 (* (- 1.0) b.speed_x__AT1)))
(let ((.def_341 (* b.speed_x__AT1 .def_340)))
(let ((.def_342 (* (- 1.0) .def_341)))
(let ((.def_373 (* 2.0 .def_342)))
(let ((.def_374 (* b.delta__AT1 .def_373)))
(let ((.def_375 (* 5.0 .def_374)))
(let ((.def_353 (* b.speed_x__AT1 .def_283)))
(let ((.def_378 (* (- 5.0) .def_353)))
(let ((.def_384 (+ .def_378 .def_375)))
(let ((.def_348 (* b.x__AT1 .def_340)))
(let ((.def_376 (* (- 5.0) .def_348)))
(let ((.def_385 (+ .def_376 .def_384)))
(let ((.def_386 (+ .def_380 .def_385)))
(let ((.def_387 (+ .def_382 .def_386)))
(let ((.def_391 (<= .def_387 0.0 )))
(let ((.def_354 (* (- 1.0) .def_353)))
(let ((.def_349 (* (- 1.0) .def_348)))
(let ((.def_370 (+ .def_349 .def_354)))
(let ((.def_371 (+ b.speed_y__AT1 .def_370)))
(let ((.def_390 (<= .def_371 0.0 )))
(let ((.def_392 (and .def_390 .def_391)))
(let ((.def_388 (<= 0.0 .def_387)))
(let ((.def_372 (<= 0.0 .def_371)))
(let ((.def_389 (and .def_372 .def_388)))
(let ((.def_393 (or .def_389 .def_392)))
(let ((.def_355 (* b.delta__AT1 .def_354)))
(let ((.def_356 (* 10.0 .def_355)))
(let ((.def_350 (* b.delta__AT1 .def_349)))
(let ((.def_351 (* 10.0 .def_350)))
(let ((.def_362 (+ .def_351 .def_356)))
(let ((.def_343 (* .def_339 .def_342)))
(let ((.def_344 (* 10.0 .def_343)))
(let ((.def_363 (+ .def_344 .def_362)))
(let ((.def_364 (+ .def_346 .def_363)))
(let ((.def_365 (+ .def_338 .def_364)))
(let ((.def_358 (* (- 10.0) .def_329)))
(let ((.def_366 (+ .def_358 .def_365)))
(let ((.def_367 (+ .def_360 .def_366)))
(let ((.def_368 (<= 0.0 .def_367)))
(let ((.def_330 (<= .def_329 b.y__AT1)))
(let ((.def_369 (and .def_330 .def_368)))
(let ((.def_394 (and .def_369 .def_393)))
(let ((.def_395 (and .def_66 .def_394)))
(let ((.def_331 (and .def_66 .def_330)))
(let ((.def_327 (or .def_324 .def_326)))
(let ((.def_317 (or .def_229 .def_239)))
(let ((.def_321 (or b.counter.3__AT1 .def_317)))
(let ((.def_318 (or b.counter.2__AT1 .def_317)))
(let ((.def_316 (or .def_234 .def_239)))
(let ((.def_319 (and .def_316 .def_318)))
(let ((.def_320 (or .def_248 .def_319)))
(let ((.def_322 (and .def_320 .def_321)))
(let ((.def_328 (and .def_322 .def_327)))
(let ((.def_332 (and .def_328 .def_331)))
(let ((.def_311 (<= 0.0 b.delta__AT0)))
(let ((.def_53 (not b.EVENT.0__AT0)))
(let ((.def_51 (not b.EVENT.1__AT0)))
(let ((.def_137 (and .def_51 .def_53)))
(let ((.def_139 (not .def_137)))
(let ((.def_312 (or .def_139 .def_311)))
(let ((.def_313 (or b.EVENT.1__AT0 .def_312)))
(let ((.def_182 (= b.bool_atom__AT0 b.bool_atom__AT1)))
(let ((.def_177 (= b.counter.0__AT0 b.counter.0__AT1)))
(let ((.def_174 (= b.counter.1__AT0 b.counter.1__AT1)))
(let ((.def_171 (= b.counter.2__AT0 b.counter.2__AT1)))
(let ((.def_169 (= b.counter.3__AT0 b.counter.3__AT1)))
(let ((.def_172 (and .def_169 .def_171)))
(let ((.def_175 (and .def_172 .def_174)))
(let ((.def_178 (and .def_175 .def_177)))
(let ((.def_307 (and .def_178 .def_182)))
(let ((.def_308 (or .def_139 .def_307)))
(let ((.def_309 (or b.EVENT.1__AT0 .def_308)))
(let ((.def_296 (* (- 10.0) b.y__AT1)))
(let ((.def_74 (* b.delta__AT0 b.delta__AT0)))
(let ((.def_83 (* (- 49.0) .def_74)))
(let ((.def_299 (+ .def_83 .def_296)))
(let ((.def_72 (* b.speed_y__AT0 b.delta__AT0)))
(let ((.def_73 (* 10.0 .def_72)))
(let ((.def_300 (+ .def_73 .def_299)))
(let ((.def_98 (* 10.0 b.y__AT0)))
(let ((.def_301 (+ .def_98 .def_300)))
(let ((.def_302 (= .def_301 0.0 )))
(let ((.def_290 (* (- 5.0) b.speed_y__AT1)))
(let ((.def_120 (* (- 49.0) b.delta__AT0)))
(let ((.def_291 (+ .def_120 .def_290)))
(let ((.def_122 (* 5.0 b.speed_y__AT0)))
(let ((.def_292 (+ .def_122 .def_291)))
(let ((.def_293 (= .def_292 0.0 )))
(let ((.def_282 (* b.speed_x__AT0 b.delta__AT0)))
(let ((.def_286 (+ .def_283 .def_282)))
(let ((.def_287 (+ b.x__AT0 .def_286)))
(let ((.def_288 (= .def_287 0.0 )))
(let ((.def_163 (= b.speed_x__AT0 b.speed_x__AT1)))
(let ((.def_289 (and .def_163 .def_288)))
(let ((.def_294 (and .def_289 .def_293)))
(let ((.def_303 (and .def_294 .def_302)))
(let ((.def_304 (or .def_139 .def_303)))
(let ((.def_160 (= b.y__AT0 b.y__AT1)))
(let ((.def_157 (= b.x__AT0 b.x__AT1)))
(let ((.def_276 (and .def_157 .def_160)))
(let ((.def_277 (and .def_163 .def_276)))
(let ((.def_166 (= b.speed_y__AT0 b.speed_y__AT1)))
(let ((.def_278 (and .def_166 .def_277)))
(let ((.def_273 (= b.delta__AT0 0.0 )))
(let ((.def_274 (and .def_137 .def_273)))
(let ((.def_275 (not .def_274)))
(let ((.def_279 (or .def_275 .def_278)))
(let ((.def_280 (or b.EVENT.1__AT0 .def_279)))
(let ((.def_265 (and .def_163 .def_166)))
(let ((.def_266 (and .def_178 .def_265)))
(let ((.def_267 (or b.bool_atom__AT0 .def_266)))
(let ((.def_240 (or b.counter.0__AT0 .def_239)))
(let ((.def_34 (not b.counter.0__AT0)))
(let ((.def_238 (or .def_34 b.counter.0__AT1)))
(let ((.def_241 (and .def_238 .def_240)))
(let ((.def_242 (and .def_229 .def_241)))
(let ((.def_243 (or b.counter.1__AT0 .def_242)))
(let ((.def_32 (not b.counter.1__AT0)))
(let ((.def_237 (or .def_32 b.counter.1__AT1)))
(let ((.def_244 (and .def_237 .def_243)))
(let ((.def_256 (and .def_234 .def_244)))
(let ((.def_257 (or b.counter.2__AT0 .def_256)))
(let ((.def_251 (and .def_34 .def_229)))
(let ((.def_252 (or b.counter.1__AT0 .def_251)))
(let ((.def_253 (and .def_237 .def_252)))
(let ((.def_254 (and b.counter.2__AT1 .def_253)))
(let ((.def_37 (not b.counter.2__AT0)))
(let ((.def_255 (or .def_37 .def_254)))
(let ((.def_258 (and .def_255 .def_257)))
(let ((.def_259 (and b.counter.3__AT1 .def_258)))
(let ((.def_260 (or b.counter.3__AT0 .def_259)))
(let ((.def_245 (and b.counter.2__AT1 .def_244)))
(let ((.def_246 (or b.counter.2__AT0 .def_245)))
(let ((.def_232 (or b.counter.1__AT0 b.counter.1__AT1)))
(let ((.def_230 (and b.counter.0__AT1 .def_229)))
(let ((.def_231 (or .def_32 .def_230)))
(let ((.def_233 (and .def_231 .def_232)))
(let ((.def_235 (and .def_233 .def_234)))
(let ((.def_236 (or .def_37 .def_235)))
(let ((.def_247 (and .def_236 .def_246)))
(let ((.def_249 (and .def_247 .def_248)))
(let ((.def_40 (not b.counter.3__AT0)))
(let ((.def_250 (or .def_40 .def_249)))
(let ((.def_261 (and .def_250 .def_260)))
(let ((.def_220 (* b.speed_y__AT0 b.speed_y__AT0)))
(let ((.def_219 (* b.speed_x__AT0 b.speed_x__AT0)))
(let ((.def_221 (+ .def_219 .def_220)))
(let ((.def_222 (* .def_218 .def_221)))
(let ((.def_224 (* (- 1.0) .def_222)))
(let ((.def_225 (+ .def_215 .def_224)))
(let ((.def_226 (+ .def_213 .def_225)))
(let ((.def_227 (= .def_226 0.0 )))
(let ((.def_206 (* b.speed_y__AT0 .def_202)))
(let ((.def_189 (* (- 2.0) b.x__AT0)))
(let ((.def_190 (* (- 1.0) .def_189)))
(let ((.def_203 (* .def_190 .def_202)))
(let ((.def_204 (* b.speed_x__AT0 .def_203)))
(let ((.def_209 (+ .def_204 .def_206)))
(let ((.def_210 (+ .def_200 .def_209)))
(let ((.def_211 (+ b.speed_y__AT1 .def_210)))
(let ((.def_212 (= .def_211 0.0 )))
(let ((.def_228 (and .def_212 .def_227)))
(let ((.def_262 (and .def_228 .def_261)))
(let ((.def_197 (not b.bool_atom__AT0)))
(let ((.def_263 (or .def_197 .def_262)))
(let ((.def_191 (* b.speed_x__AT0 .def_190)))
(let ((.def_192 (+ b.speed_y__AT0 .def_191)))
(let ((.def_193 (<= 0.0 .def_192)))
(let ((.def_194 (not .def_193)))
(let ((.def_57 (* (- 1.0) b.x__AT0)))
(let ((.def_58 (* b.x__AT0 .def_57)))
(let ((.def_187 (= b.y__AT0 .def_58)))
(let ((.def_195 (and .def_187 .def_194)))
(let ((.def_196 (= b.bool_atom__AT0 .def_195)))
(let ((.def_264 (and .def_196 .def_263)))
(let ((.def_268 (and .def_264 .def_267)))
(let ((.def_269 (and .def_157 .def_268)))
(let ((.def_270 (and .def_160 .def_269)))
(let ((.def_271 (or .def_137 .def_270)))
(let ((.def_272 (or b.EVENT.1__AT0 .def_271)))
(let ((.def_281 (and .def_272 .def_280)))
(let ((.def_305 (and .def_281 .def_304)))
(let ((.def_144 (= b.time__AT0 b.time__AT1)))
(let ((.def_158 (and .def_144 .def_157)))
(let ((.def_161 (and .def_158 .def_160)))
(let ((.def_164 (and .def_161 .def_163)))
(let ((.def_167 (and .def_164 .def_166)))
(let ((.def_179 (and .def_167 .def_178)))
(let ((.def_183 (and .def_179 .def_182)))
(let ((.def_184 (or .def_51 .def_183)))
(let ((.def_147 (* (- 1.0) b.time__AT1)))
(let ((.def_150 (+ b.delta__AT0 .def_147)))
(let ((.def_151 (+ b.time__AT0 .def_150)))
(let ((.def_152 (= .def_151 0.0 )))
(let ((.def_153 (or .def_139 .def_152)))
(let ((.def_154 (or b.EVENT.1__AT0 .def_153)))
(let ((.def_145 (or .def_137 .def_144)))
(let ((.def_146 (or b.EVENT.1__AT0 .def_145)))
(let ((.def_155 (and .def_146 .def_154)))
(let ((.def_185 (and .def_155 .def_184)))
(let ((.def_141 (= .def_139 b.event_is_timed__AT1)))
(let ((.def_138 (= b.event_is_timed__AT0 .def_137)))
(let ((.def_142 (and .def_138 .def_141)))
(let ((.def_186 (and .def_142 .def_185)))
(let ((.def_306 (and .def_186 .def_305)))
(let ((.def_310 (and .def_306 .def_309)))
(let ((.def_314 (and .def_310 .def_313)))
(let ((.def_315 (and .def_51 .def_314)))
(let ((.def_333 (and .def_315 .def_332)))
(let ((.def_35 (and .def_32 .def_34)))
(let ((.def_38 (and .def_35 .def_37)))
(let ((.def_334 (and .def_38 .def_333)))
(let ((.def_75 (* (- 1.0) b.speed_x__AT0)))
(let ((.def_76 (* b.speed_x__AT0 .def_75)))
(let ((.def_77 (* (- 1.0) .def_76)))
(let ((.def_111 (* 2.0 .def_77)))
(let ((.def_112 (* b.delta__AT0 .def_111)))
(let ((.def_114 (* 5.0 .def_112)))
(let ((.def_90 (* b.speed_x__AT0 .def_57)))
(let ((.def_118 (* (- 5.0) .def_90)))
(let ((.def_124 (+ .def_118 .def_114)))
(let ((.def_85 (* b.x__AT0 .def_75)))
(let ((.def_116 (* (- 5.0) .def_85)))
(let ((.def_125 (+ .def_116 .def_124)))
(let ((.def_126 (+ .def_120 .def_125)))
(let ((.def_127 (+ .def_122 .def_126)))
(let ((.def_131 (<= .def_127 0.0 )))
(let ((.def_91 (* (- 1.0) .def_90)))
(let ((.def_86 (* (- 1.0) .def_85)))
(let ((.def_108 (+ .def_86 .def_91)))
(let ((.def_109 (+ b.speed_y__AT0 .def_108)))
(let ((.def_130 (<= .def_109 0.0 )))
(let ((.def_132 (and .def_130 .def_131)))
(let ((.def_128 (<= 0.0 .def_127)))
(let ((.def_110 (<= 0.0 .def_109)))
(let ((.def_129 (and .def_110 .def_128)))
(let ((.def_133 (or .def_129 .def_132)))
(let ((.def_92 (* b.delta__AT0 .def_91)))
(let ((.def_93 (* 10.0 .def_92)))
(let ((.def_87 (* b.delta__AT0 .def_86)))
(let ((.def_88 (* 10.0 .def_87)))
(let ((.def_100 (+ .def_88 .def_93)))
(let ((.def_78 (* .def_74 .def_77)))
(let ((.def_79 (* 10.0 .def_78)))
(let ((.def_101 (+ .def_79 .def_100)))
(let ((.def_102 (+ .def_83 .def_101)))
(let ((.def_103 (+ .def_73 .def_102)))
(let ((.def_96 (* (- 10.0) .def_58)))
(let ((.def_104 (+ .def_96 .def_103)))
(let ((.def_105 (+ .def_98 .def_104)))
(let ((.def_106 (<= 0.0 .def_105)))
(let ((.def_59 (<= .def_58 b.y__AT0)))
(let ((.def_107 (and .def_59 .def_106)))
(let ((.def_134 (and .def_107 .def_133)))
(let ((.def_135 (and .def_66 .def_134)))
(let ((.def_67 (and .def_59 .def_66)))
(let ((.def_54 (or .def_51 .def_53)))
(let ((.def_44 (or .def_32 .def_34)))
(let ((.def_48 (or b.counter.3__AT0 .def_44)))
(let ((.def_45 (or b.counter.2__AT0 .def_44)))
(let ((.def_43 (or .def_34 .def_37)))
(let ((.def_46 (and .def_43 .def_45)))
(let ((.def_47 (or .def_40 .def_46)))
(let ((.def_49 (and .def_47 .def_48)))
(let ((.def_55 (and .def_49 .def_54)))
(let ((.def_68 (and .def_55 .def_67)))
(let ((.def_41 (and .def_38 .def_40)))
(let ((.def_29 (= b.speed_y__AT0 1.0 )))
(let ((.def_26 (= b.speed_x__AT0 1.0 )))
(let ((.def_22 (= b.y__AT0 10.0 )))
(let ((.def_18 (= b.x__AT0 0.0 )))
(let ((.def_14 (= b.time__AT0 0.0 )))
(let ((.def_16 (and .def_14 b.event_is_timed__AT0)))
(let ((.def_19 (and .def_16 .def_18)))
(let ((.def_23 (and .def_19 .def_22)))
(let ((.def_27 (and .def_23 .def_26)))
(let ((.def_30 (and .def_27 .def_29)))
(let ((.def_42 (and .def_30 .def_41)))
(let ((.def_69 (and .def_42 .def_68)))
(let ((.def_7 (and .def_4 .def_6)))
(let ((.def_10 (and .def_7 .def_9)))
(let ((.def_11 (not .def_10)))
(let ((.def_70 (and .def_11 .def_69)))
(let ((.def_136 (and .def_70 .def_135)))
(let ((.def_335 (and .def_136 .def_334)))
(let ((.def_396 (and .def_335 .def_395)))
(let ((.def_587 (and .def_396 .def_586)))
(let ((.def_648 (and .def_587 .def_647)))
(let ((.def_833 (and .def_648 .def_832)))
(let ((.def_894 (and .def_833 .def_893)))
.def_894)))))))))))))))))))))))))))))))))))))))))))))))))))))))))))))))))))))))))))))))))))))))))))))))))))))))))))))))))))))))))))))))))))))))))))))))))))))))))))))))))))))))))))))))))))))))))))))))))))))))))))))))))))))))))))))))))))))))))))))))))))))))))))))))))))))))))))))))))))))))))))))))))))))))))))))))))))))))))))))))))))))))))))))))))))))))))))))))))))))))))))))))))))))))))))))))))))))))))))))))))))))))))))))))))))))))))))))))))))))))))))))))))))))))))))))))))))))))))))))))))))))))))))))))))))))))))))))))))))))))))))))))))))))))))))))))))))))))))))))))))))))))))))))))))))))))))))))))))))))))))))))))))))))))))))))))))))))))))))))))))))))))))))))))))))))))))))))))))))))))))))))))))))))))))))))))))))))))))))))))))))))))))))))))))))))
(check-sat)
(exit)
